Gurobi 12.0.1:   lim:time = 500
  mip:bestbound = 1
Set parameter LogToConsole to value 1
  tech:outlev = 1
Set parameter InfUnbdInfo to value 1
Gurobi Optimizer version 12.0.1 build v12.0.1rc0 (win64 - Windows 11.0 (26100.2))

CPU model: Intel(R) Core(TM) i7-10700 CPU @ 2.90GHz, instruction set [SSE2|AVX|AVX2]
Thread count: 8 physical cores, 16 logical processors, using up to 16 threads

Non-default parameters:
TimeLimit  500
InfUnbdInfo  1

Optimize a model with 194 rows, 159 columns and 867 nonzeros
Model fingerprint: 0x38c65b4d
Model has 2 quadratic constraints
Variable types: 21 continuous, 138 integer (0 binary)
Coefficient statistics:
  Matrix range     [1e+00, 1e+05]
  QMatrix range    [1e+00, 1e+00]
  QLMatrix range   [8e+00, 1e+01]
  Objective range  [5e+01, 3e+02]
  Bounds range     [1e+00, 1e+02]
  RHS range        [1e+00, 1e+05]
  QRHS range       [1e+02, 1e+02]
Presolve removed 22 rows and 19 columns
Presolve time: 0.00s
Presolved: 254 rows, 206 columns, 1202 nonzeros
Variable types: 12 continuous, 194 integer (179 binary)
Found heuristic solution: objective 1142.1600000

Root relaxation: objective 4.983215e+02, 24 iterations, 0.00 seconds (0.00 work units)

    Nodes    |    Current Node    |     Objective Bounds      |     Work
 Expl Unexpl |  Obj  Depth IntInf | Incumbent    BestBd   Gap | It/Node Time

     0     0  498.32150    0   12 1142.16000  498.32150  56.4%     -    0s
H    0     0                     780.5400000  498.32150  36.2%     -    0s
     0     0  713.22637    0   12  780.54000  713.22637  8.62%     -    0s
H    0     0                     776.1300000  713.22637  8.10%     -    0s
     0     0  720.22194    0   10  776.13000  720.22194  7.20%     -    0s
     0     0  747.03000    0    7  776.13000  747.03000  3.75%     -    0s
     0     0  747.03000    0    7  776.13000  747.03000  3.75%     -    0s
     0     0  747.03000    0   12  776.13000  747.03000  3.75%     -    0s
     0     0  747.03000    0   12  776.13000  747.03000  3.75%     -    0s
     0     0  747.03000    0    8  776.13000  747.03000  3.75%     -    0s
     0     0  747.03000    0    6  776.13000  747.03000  3.75%     -    0s
     0     0  747.03000    0    6  776.13000  747.03000  3.75%     -    0s
     0     0  747.03000    0    6  776.13000  747.03000  3.75%     -    0s
     0     0  747.03000    0   12  776.13000  747.03000  3.75%     -    0s
     0     0  747.03000    0   16  776.13000  747.03000  3.75%     -    0s
     0     0  747.03000    0    7  776.13000  747.03000  3.75%     -    0s
     0     0  747.03000    0    4  776.13000  747.03000  3.75%     -    0s
     0     0  747.03000    0    4  776.13000  747.03000  3.75%     -    0s
     0     0  747.03093    0   13  776.13000  747.03093  3.75%     -    0s
     0     0  748.20000    0   13  776.13000  748.20000  3.60%     -    0s
     0     0  750.54000    0   11  776.13000  750.54000  3.30%     -    0s
     0     0  751.80000    0   11  776.13000  751.80000  3.13%     -    0s
     0     0  774.75000    0   11  776.13000  774.75000  0.18%     -    0s
     0     0  774.75000    0   11  776.13000  774.75000  0.18%     -    0s
     0     2  774.75000    0    9  776.13000  774.75000  0.18%     -    0s

Cutting planes:
  Learned: 4
  Implied bound: 2
  MIR: 4
  Inf proof: 1

Explored 112 nodes (767 simplex iterations) in 0.12 seconds (0.07 work units)
Thread count was 16 (of 16 available processors)

Solution count 3: 776.13 780.54 1142.16 

Optimal solution found (tolerance 1.00e-04)
Best objective 7.761300000000e+02, best bound 7.761300000000e+02, gap 0.0000%

AMPL MP initial flat model has 159 variables (0 integer, 138 binary);
Objectives: 1 linear; 
Constraints:  194 linear; 2 quadratic;

AMPL MP final model has 159 variables (0 integer, 138 binary);
Objectives: 1 linear; 
Constraints:  194 linear; 2 quadratic;


-----RESULTS INFO-----
running_time:  0.188
TC.best_bound:  776.1299999999999
TC:  776.1299999999999
MIP Gap (%):  0
=== Vehicle Routes ===
Vehicle 1: 0 → 2
Vehicle 1: 1 → 10
Vehicle 1: 2 → 9
Vehicle 1: 9 → 1
Vehicle 1: 10 → 15
Vehicle 2: 0 → 15

=== Full Vehicle Routes ===
Vehicle 1: 0 → 2 → 9 → 1 → 10 → 0 (60<100)
Vehicle 2: 0 → 0 (0<100)
Arc used by MRT line: y variables:
Customer assigment to PL: u variables:
3 10
4 9
5 9
6 10
Node is served by regular vehicle: g variables:
1
2
9
10
Customer assigment to Home delivery: gm variables:
1
2
Node total demands: ntd variables:
1 8 1
2 14 1
5 0 0
6 0 0
13 0 0
14 0 0
7 0 0
8 0 0
9 28 1
10 10 1
11 0 0
12 0 0
Customer's demand delivered to PL: l variables:
3
4
5
6
